Data/SimpleNetwork_ImperialUnits/LPModels/mGDA.lp
\ LP format - for model browsing. Use MPS format to capture full model detail.
Minimize
  10000 gshed_da(ng101,k0,t1) + 10000 gshed_da(ng101,k1,t1)
   + 10000 gshed_da(ng101,k2,t1) + 10000 gshed_da(ng101,k0,t2)
   + 10000 gshed_da(ng101,k1,t2) + 10000 gshed_da(ng101,k2,t2)
   + 10000 gshed_da(ng101,k0,t3) + 10000 gshed_da(ng101,k1,t3)
   + 10000 gshed_da(ng101,k2,t3) + 10000 gshed_da(ng101,k0,t4)
   + 10000 gshed_da(ng101,k1,t4) + 10000 gshed_da(ng101,k2,t4)
   + 0 gshed_da(ng101,k0,t5) + 0 gshed_da(ng101,k1,t5)
   + 0 gshed_da(ng101,k2,t5) + 0 gshed_da(ng101,k0,t6)
   + 0 gshed_da(ng101,k1,t6) + 0 gshed_da(ng101,k2,t6)
   + 0 gshed_da(ng101,k0,t7) + 0 gshed_da(ng101,k1,t7)
   + 0 gshed_da(ng101,k2,t7) + 0 gshed_da(ng101,k0,t8)
   + 0 gshed_da(ng101,k1,t8) + 0 gshed_da(ng101,k2,t8)
   + 0 gshed_da(ng101,k0,t9) + 0 gshed_da(ng101,k1,t9)
   + 0 gshed_da(ng101,k2,t9) + 0 gshed_da(ng101,k0,t10)
   + 0 gshed_da(ng101,k1,t10) + 0 gshed_da(ng101,k2,t10)
   + 0 gshed_da(ng101,k0,t11) + 0 gshed_da(ng101,k1,t11)
   + 0 gshed_da(ng101,k2,t11) + 0 gshed_da(ng101,k0,t12)
   + 0 gshed_da(ng101,k1,t12) + 0 gshed_da(ng101,k2,t12)
   + 0 gshed_da(ng101,k0,t13) + 0 gshed_da(ng101,k1,t13)
   + 0 gshed_da(ng101,k2,t13) + 0 gshed_da(ng101,k0,t14)
   + 0 gshed_da(ng101,k1,t14) + 0 gshed_da(ng101,k2,t14)
   + 0 gshed_da(ng101,k0,t15) + 0 gshed_da(ng101,k1,t15)
   + 0 gshed_da(ng101,k2,t15) + 0 gshed_da(ng101,k0,t16)
   + 0 gshed_da(ng101,k1,t16) + 0 gshed_da(ng101,k2,t16)
   + 0 gshed_da(ng101,k0,t17) + 0 gshed_da(ng101,k1,t17)
   + 0 gshed_da(ng101,k2,t17) + 0 gshed_da(ng101,k0,t18)
   + 0 gshed_da(ng101,k1,t18) + 0 gshed_da(ng101,k2,t18)
   + 0 gshed_da(ng101,k0,t19) + 0 gshed_da(ng101,k1,t19)
   + 0 gshed_da(ng101,k2,t19) + 0 gshed_da(ng101,k0,t20)
   + 0 gshed_da(ng101,k1,t20) + 0 gshed_da(ng101,k2,t20)
   + 0 gshed_da(ng101,k0,t21) + 0 gshed_da(ng101,k1,t21)
   + 0 gshed_da(ng101,k2,t21) + 0 gshed_da(ng101,k0,t22)
   + 0 gshed_da(ng101,k1,t22) + 0 gshed_da(ng101,k2,t22)
   + 0 gshed_da(ng101,k0,t23) + 0 gshed_da(ng101,k1,t23)
   + 0 gshed_da(ng101,k2,t23) + 0 gshed_da(ng101,k0,t24)
   + 0 gshed_da(ng101,k1,t24) + 0 gshed_da(ng101,k2,t24)
   + 10000 gshed_da(ng102,k0,t1) + 10000 gshed_da(ng102,k1,t1)
   + 10000 gshed_da(ng102,k2,t1) + 10000 gshed_da(ng102,k0,t2)
   + 10000 gshed_da(ng102,k1,t2) + 10000 gshed_da(ng102,k2,t2)
   + 10000 gshed_da(ng102,k0,t3) + 10000 gshed_da(ng102,k1,t3)
   + 10000 gshed_da(ng102,k2,t3) + 10000 gshed_da(ng102,k0,t4)
   + 10000 gshed_da(ng102,k1,t4) + 10000 gshed_da(ng102,k2,t4)
   + 0 gshed_da(ng102,k0,t5) + 0 gshed_da(ng102,k1,t5)
   + 0 gshed_da(ng102,k2,t5) + 0 gshed_da(ng102,k0,t6)
   + 0 gshed_da(ng102,k1,t6) + 0 gshed_da(ng102,k2,t6)
   + 0 gshed_da(ng102,k0,t7) + 0 gshed_da(ng102,k1,t7)
   + 0 gshed_da(ng102,k2,t7) + 0 gshed_da(ng102,k0,t8)
   + 0 gshed_da(ng102,k1,t8) + 0 gshed_da(ng102,k2,t8)
   + 0 gshed_da(ng102,k0,t9) + 0 gshed_da(ng102,k1,t9)
   + 0 gshed_da(ng102,k2,t9) + 0 gshed_da(ng102,k0,t10)
   + 0 gshed_da(ng102,k1,t10) + 0 gshed_da(ng102,k2,t10)
   + 0 gshed_da(ng102,k0,t11) + 0 gshed_da(ng102,k1,t11)
   + 0 gshed_da(ng102,k2,t11) + 0 gshed_da(ng102,k0,t12)
   + 0 gshed_da(ng102,k1,t12) + 0 gshed_da(ng102,k2,t12)
   + 0 gshed_da(ng102,k0,t13) + 0 gshed_da(ng102,k1,t13)
   + 0 gshed_da(ng102,k2,t13) + 0 gshed_da(ng102,k0,t14)
   + 0 gshed_da(ng102,k1,t14) + 0 gshed_da(ng102,k2,t14)
   + 0 gshed_da(ng102,k0,t15) + 0 gshed_da(ng102,k1,t15)
   + 0 gshed_da(ng102,k2,t15) + 0 gshed_da(ng102,k0,t16)
   + 0 gshed_da(ng102,k1,t16) + 0 gshed_da(ng102,k2,t16)
   + 0 gshed_da(ng102,k0,t17) + 0 gshed_da(ng102,k1,t17)
   + 0 gshed_da(ng102,k2,t17) + 0 gshed_da(ng102,k0,t18)
   + 0 gshed_da(ng102,k1,t18) + 0 gshed_da(ng102,k2,t18)
   + 0 gshed_da(ng102,k0,t19) + 0 gshed_da(ng102,k1,t19)
   + 0 gshed_da(ng102,k2,t19) + 0 gshed_da(ng102,k0,t20)
   + 0 gshed_da(ng102,k1,t20) + 0 gshed_da(ng102,k2,t20)
   + 0 gshed_da(ng102,k0,t21) + 0 gshed_da(ng102,k1,t21)
   + 0 gshed_da(ng102,k2,t21) + 0 gshed_da(ng102,k0,t22)
   + 0 gshed_da(ng102,k1,t22) + 0 gshed_da(ng102,k2,t22)
   + 0 gshed_da(ng102,k0,t23) + 0 gshed_da(ng102,k1,t23)
   + 0 gshed_da(ng102,k2,t23) + 0 gshed_da(ng102,k0,t24)
   + 0 gshed_da(ng102,k1,t24) + 0 gshed_da(ng102,k2,t24)
   + 0 gflow_sr(('ng101','ng102'),k0,t5)
   + 0 gflow_sr(('ng101','ng102'),k1,t5)
   + 0 gflow_sr(('ng101','ng102'),k2,t5)
   + 0 gflow_sr(('ng101','ng102'),k0,t6)
   + 0 gflow_sr(('ng101','ng102'),k1,t6)
   + 0 gflow_sr(('ng101','ng102'),k2,t6)
   + 0 gflow_sr(('ng101','ng102'),k0,t7)
   + 0 gflow_sr(('ng101','ng102'),k1,t7)
   + 0 gflow_sr(('ng101','ng102'),k2,t7)
   + 0 gflow_sr(('ng101','ng102'),k0,t8)
   + 0 gflow_sr(('ng101','ng102'),k1,t8)
   + 0 gflow_sr(('ng101','ng102'),k2,t8)
   + 0 gflow_sr(('ng101','ng102'),k0,t9)
   + 0 gflow_sr(('ng101','ng102'),k1,t9)
   + 0 gflow_sr(('ng101','ng102'),k2,t9)
   + 0 gflow_sr(('ng101','ng102'),k0,t10)
   + 0 gflow_sr(('ng101','ng102'),k1,t10)
   + 0 gflow_sr(('ng101','ng102'),k2,t10)
   + 0 gflow_sr(('ng101','ng102'),k0,t11)
   + 0 gflow_sr(('ng101','ng102'),k1,t11)
   + 0 gflow_sr(('ng101','ng102'),k2,t11)
   + 0 gflow_sr(('ng101','ng102'),k0,t12)
   + 0 gflow_sr(('ng101','ng102'),k1,t12)
   + 0 gflow_sr(('ng101','ng102'),k2,t12)
   + 0 gflow_sr(('ng101','ng102'),k0,t13)
   + 0 gflow_sr(('ng101','ng102'),k1,t13)
   + 0 gflow_sr(('ng101','ng102'),k2,t13)
   + 0 gflow_sr(('ng101','ng102'),k0,t14)
   + 0 gflow_sr(('ng101','ng102'),k1,t14)
   + 0 gflow_sr(('ng101','ng102'),k2,t14)
   + 0 gflow_sr(('ng101','ng102'),k0,t15)
   + 0 gflow_sr(('ng101','ng102'),k1,t15)
   + 0 gflow_sr(('ng101','ng102'),k2,t15)
   + 0 gflow_sr(('ng101','ng102'),k0,t16)
   + 0 gflow_sr(('ng101','ng102'),k1,t16)
   + 0 gflow_sr(('ng101','ng102'),k2,t16)
   + 0 gflow_sr(('ng101','ng102'),k0,t17)
   + 0 gflow_sr(('ng101','ng102'),k1,t17)
   + 0 gflow_sr(('ng101','ng102'),k2,t17)
   + 0 gflow_sr(('ng101','ng102'),k0,t18)
   + 0 gflow_sr(('ng101','ng102'),k1,t18)
   + 0 gflow_sr(('ng101','ng102'),k2,t18)
   + 0 gflow_sr(('ng101','ng102'),k0,t19)
   + 0 gflow_sr(('ng101','ng102'),k1,t19)
   + 0 gflow_sr(('ng101','ng102'),k2,t19)
   + 0 gflow_sr(('ng101','ng102'),k0,t20)
   + 0 gflow_sr(('ng101','ng102'),k1,t20)
   + 0 gflow_sr(('ng101','ng102'),k2,t20)
   + 0 gflow_sr(('ng101','ng102'),k0,t21)
   + 0 gflow_sr(('ng101','ng102'),k1,t21)
   + 0 gflow_sr(('ng101','ng102'),k2,t21)
   + 0 gflow_sr(('ng101','ng102'),k0,t22)
   + 0 gflow_sr(('ng101','ng102'),k1,t22)
   + 0 gflow_sr(('ng101','ng102'),k2,t22)
   + 0 gflow_sr(('ng101','ng102'),k0,t23)
   + 0 gflow_sr(('ng101','ng102'),k1,t23)
   + 0 gflow_sr(('ng101','ng102'),k2,t23)
   + 0 gflow_sr(('ng101','ng102'),k0,t24)
   + 0 gflow_sr(('ng101','ng102'),k1,t24)
   + 0 gflow_sr(('ng101','ng102'),k2,t24)
   + 0 qin_sr(('ng101','ng102'),k0,t5) + 0 qout_sr(('ng101','ng102'),k0,t5)
   + 0 qin_sr(('ng101','ng102'),k1,t5) + 0 qout_sr(('ng101','ng102'),k1,t5)
   + 0 qin_sr(('ng101','ng102'),k2,t5) + 0 qout_sr(('ng101','ng102'),k2,t5)
   + 0 qin_sr(('ng101','ng102'),k0,t6) + 0 qout_sr(('ng101','ng102'),k0,t6)
   + 0 qin_sr(('ng101','ng102'),k1,t6) + 0 qout_sr(('ng101','ng102'),k1,t6)
   + 0 qin_sr(('ng101','ng102'),k2,t6) + 0 qout_sr(('ng101','ng102'),k2,t6)
   + 0 qin_sr(('ng101','ng102'),k0,t7) + 0 qout_sr(('ng101','ng102'),k0,t7)
   + 0 qin_sr(('ng101','ng102'),k1,t7) + 0 qout_sr(('ng101','ng102'),k1,t7)
   + 0 qin_sr(('ng101','ng102'),k2,t7) + 0 qout_sr(('ng101','ng102'),k2,t7)
   + 0 qin_sr(('ng101','ng102'),k0,t8) + 0 qout_sr(('ng101','ng102'),k0,t8)
   + 0 qin_sr(('ng101','ng102'),k1,t8) + 0 qout_sr(('ng101','ng102'),k1,t8)
   + 0 qin_sr(('ng101','ng102'),k2,t8) + 0 qout_sr(('ng101','ng102'),k2,t8)
   + 0 qin_sr(('ng101','ng102'),k0,t9) + 0 qout_sr(('ng101','ng102'),k0,t9)
   + 0 qin_sr(('ng101','ng102'),k1,t9) + 0 qout_sr(('ng101','ng102'),k1,t9)
   + 0 qin_sr(('ng101','ng102'),k2,t9) + 0 qout_sr(('ng101','ng102'),k2,t9)
   + 0 qin_sr(('ng101','ng102'),k0,t10)
   + 0 qout_sr(('ng101','ng102'),k0,t10)
   + 0 qin_sr(('ng101','ng102'),k1,t10)
   + 0 qout_sr(('ng101','ng102'),k1,t10)
   + 0 qin_sr(('ng101','ng102'),k2,t10)
   + 0 qout_sr(('ng101','ng102'),k2,t10)
   + 0 qin_sr(('ng101','ng102'),k0,t11)
   + 0 qout_sr(('ng101','ng102'),k0,t11)
   + 0 qin_sr(('ng101','ng102'),k1,t11)
   + 0 qout_sr(('ng101','ng102'),k1,t11)
   + 0 qin_sr(('ng101','ng102'),k2,t11)
   + 0 qout_sr(('ng101','ng102'),k2,t11)
   + 0 qin_sr(('ng101','ng102'),k0,t12)
   + 0 qout_sr(('ng101','ng102'),k0,t12)
   + 0 qin_sr(('ng101','ng102'),k1,t12)
   + 0 qout_sr(('ng101','ng102'),k1,t12)
   + 0 qin_sr(('ng101','ng102'),k2,t12)
   + 0 qout_sr(('ng101','ng102'),k2,t12)
   + 0 qin_sr(('ng101','ng102'),k0,t13)
   + 0 qout_sr(('ng101','ng102'),k0,t13)
   + 0 qin_sr(('ng101','ng102'),k1,t13)
   + 0 qout_sr(('ng101','ng102'),k1,t13)
   + 0 qin_sr(('ng101','ng102'),k2,t13)
   + 0 qout_sr(('ng101','ng102'),k2,t13)
   + 0 qin_sr(('ng101','ng102'),k0,t14)
   + 0 qout_sr(('ng101','ng102'),k0,t14)
   + 0 qin_sr(('ng101','ng102'),k1,t14)
   + 0 qout_sr(('ng101','ng102'),k1,t14)
   + 0 qin_sr(('ng101','ng102'),k2,t14)
   + 0 qout_sr(('ng101','ng102'),k2,t14)
   + 0 qin_sr(('ng101','ng102'),k0,t15)
   + 0 qout_sr(('ng101','ng102'),k0,t15)
   + 0 qin_sr(('ng101','ng102'),k1,t15)
   + 0 qout_sr(('ng101','ng102'),k1,t15)
   + 0 qin_sr(('ng101','ng102'),k2,t15)
   + 0 qout_sr(('ng101','ng102'),k2,t15)
   + 0 qin_sr(('ng101','ng102'),k0,t16)
   + 0 qout_sr(('ng101','ng102'),k0,t16)
   + 0 qin_sr(('ng101','ng102'),k1,t16)
   + 0 qout_sr(('ng101','ng102'),k1,t16)
   + 0 qin_sr(('ng101','ng102'),k2,t16)
   + 0 qout_sr(('ng101','ng102'),k2,t16)
   + 0 qin_sr(('ng101','ng102'),k0,t17)
   + 0 qout_sr(('ng101','ng102'),k0,t17)
   + 0 qin_sr(('ng101','ng102'),k1,t17)
   + 0 qout_sr(('ng101','ng102'),k1,t17)
   + 0 qin_sr(('ng101','ng102'),k2,t17)
   + 0 qout_sr(('ng101','ng102'),k2,t17)
   + 0 qin_sr(('ng101','ng102'),k0,t18)
   + 0 qout_sr(('ng101','ng102'),k0,t18)
   + 0 qin_sr(('ng101','ng102'),k1,t18)
   + 0 qout_sr(('ng101','ng102'),k1,t18)
   + 0 qin_sr(('ng101','ng102'),k2,t18)
   + 0 qout_sr(('ng101','ng102'),k2,t18)
   + 0 qin_sr(('ng101','ng102'),k0,t19)
   + 0 qout_sr(('ng101','ng102'),k0,t19)
   + 0 qin_sr(('ng101','ng102'),k1,t19)
   + 0 qout_sr(('ng101','ng102'),k1,t19)
   + 0 qin_sr(('ng101','ng102'),k2,t19)
   + 0 qout_sr(('ng101','ng102'),k2,t19)
   + 0 qin_sr(('ng101','ng102'),k0,t20)
   + 0 qout_sr(('ng101','ng102'),k0,t20)
   + 0 qin_sr(('ng101','ng102'),k1,t20)
   + 0 qout_sr(('ng101','ng102'),k1,t20)
   + 0 qin_sr(('ng101','ng102'),k2,t20)
   + 0 qout_sr(('ng101','ng102'),k2,t20)
   + 0 qin_sr(('ng101','ng102'),k0,t21)
   + 0 qout_sr(('ng101','ng102'),k0,t21)
   + 0 qin_sr(('ng101','ng102'),k1,t21)
   + 0 qout_sr(('ng101','ng102'),k1,t21)
   + 0 qin_sr(('ng101','ng102'),k2,t21)
   + 0 qout_sr(('ng101','ng102'),k2,t21)
   + 0 qin_sr(('ng101','ng102'),k0,t22)
   + 0 qout_sr(('ng101','ng102'),k0,t22)
   + 0 qin_sr(('ng101','ng102'),k1,t22)
   + 0 qout_sr(('ng101','ng102'),k1,t22)
   + 0 qin_sr(('ng101','ng102'),k2,t22)
   + 0 qout_sr(('ng101','ng102'),k2,t22)
   + 0 qin_sr(('ng101','ng102'),k0,t23)
   + 0 qout_sr(('ng101','ng102'),k0,t23)
   + 0 qin_sr(('ng101','ng102'),k1,t23)
   + 0 qout_sr(('ng101','ng102'),k1,t23)
   + 0 qin_sr(('ng101','ng102'),k2,t23)
   + 0 qout_sr(('ng101','ng102'),k2,t23)
   + 0 qin_sr(('ng101','ng102'),k0,t24)
   + 0 qout_sr(('ng101','ng102'),k0,t24)
   + 0 qin_sr(('ng101','ng102'),k1,t24)
   + 0 qout_sr(('ng101','ng102'),k1,t24)
   + 0 qin_sr(('ng101','ng102'),k2,t24)
   + 0 qout_sr(('ng101','ng102'),k2,t24) + 2 gprod(gw1,k0,t1)
   + 2 gprod(gw1,k0,t2) + 2 gprod(gw1,k0,t3) + 2 gprod(gw1,k0,t4)
   + 0 gprod(gw1,k0,t5) + 0 gprod(gw1,k1,t5) + 0 gprod(gw1,k2,t5)
   + 0 gprod(gw1,k0,t6) + 0 gprod(gw1,k1,t6) + 0 gprod(gw1,k2,t6)
   + 0 gprod(gw1,k0,t7) + 0 gprod(gw1,k1,t7) + 0 gprod(gw1,k2,t7)
   + 0 gprod(gw1,k0,t8) + 0 gprod(gw1,k1,t8) + 0 gprod(gw1,k2,t8)
   + 0 gprod(gw1,k0,t9) + 0 gprod(gw1,k1,t9) + 0 gprod(gw1,k2,t9)
   + 0 gprod(gw1,k0,t10) + 0 gprod(gw1,k1,t10) + 0 gprod(gw1,k2,t10)
   + 0 gprod(gw1,k0,t11) + 0 gprod(gw1,k1,t11) + 0 gprod(gw1,k2,t11)
   + 0 gprod(gw1,k0,t12) + 0 gprod(gw1,k1,t12) + 0 gprod(gw1,k2,t12)
   + 0 gprod(gw1,k0,t13) + 0 gprod(gw1,k1,t13) + 0 gprod(gw1,k2,t13)
   + 0 gprod(gw1,k0,t14) + 0 gprod(gw1,k1,t14) + 0 gprod(gw1,k2,t14)
   + 0 gprod(gw1,k0,t15) + 0 gprod(gw1,k1,t15) + 0 gprod(gw1,k2,t15)
   + 0 gprod(gw1,k0,t16) + 0 gprod(gw1,k1,t16) + 0 gprod(gw1,k2,t16)
   + 0 gprod(gw1,k0,t17) + 0 gprod(gw1,k1,t17) + 0 gprod(gw1,k2,t17)
   + 0 gprod(gw1,k0,t18) + 0 gprod(gw1,k1,t18) + 0 gprod(gw1,k2,t18)
   + 0 gprod(gw1,k0,t19) + 0 gprod(gw1,k1,t19) + 0 gprod(gw1,k2,t19)
   + 0 gprod(gw1,k0,t20) + 0 gprod(gw1,k1,t20) + 0 gprod(gw1,k2,t20)
   + 0 gprod(gw1,k0,t21) + 0 gprod(gw1,k1,t21) + 0 gprod(gw1,k2,t21)
   + 0 gprod(gw1,k0,t22) + 0 gprod(gw1,k1,t22) + 0 gprod(gw1,k2,t22)
   + 0 gprod(gw1,k0,t23) + 0 gprod(gw1,k1,t23) + 0 gprod(gw1,k2,t23)
   + 0 gprod(gw1,k0,t24) + 0 gprod(gw1,k1,t24) + 0 gprod(gw1,k2,t24)
   + 3 gprod(gw2,k0,t1) + 3 gprod(gw2,k0,t2) + 3 gprod(gw2,k0,t3)
   + 3 gprod(gw2,k0,t4) + 0 gprod(gw2,k0,t5) + 0 gprod(gw2,k1,t5)
   + 0 gprod(gw2,k2,t5) + 0 gprod(gw2,k0,t6) + 0 gprod(gw2,k1,t6)
   + 0 gprod(gw2,k2,t6) + 0 gprod(gw2,k0,t7) + 0 gprod(gw2,k1,t7)
   + 0 gprod(gw2,k2,t7) + 0 gprod(gw2,k0,t8) + 0 gprod(gw2,k1,t8)
   + 0 gprod(gw2,k2,t8) + 0 gprod(gw2,k0,t9) + 0 gprod(gw2,k1,t9)
   + 0 gprod(gw2,k2,t9) + 0 gprod(gw2,k0,t10) + 0 gprod(gw2,k1,t10)
   + 0 gprod(gw2,k2,t10) + 0 gprod(gw2,k0,t11) + 0 gprod(gw2,k1,t11)
   + 0 gprod(gw2,k2,t11) + 0 gprod(gw2,k0,t12) + 0 gprod(gw2,k1,t12)
   + 0 gprod(gw2,k2,t12) + 0 gprod(gw2,k0,t13) + 0 gprod(gw2,k1,t13)
   + 0 gprod(gw2,k2,t13) + 0 gprod(gw2,k0,t14) + 0 gprod(gw2,k1,t14)
   + 0 gprod(gw2,k2,t14) + 0 gprod(gw2,k0,t15) + 0 gprod(gw2,k1,t15)
   + 0 gprod(gw2,k2,t15) + 0 gprod(gw2,k0,t16) + 0 gprod(gw2,k1,t16)
   + 0 gprod(gw2,k2,t16) + 0 gprod(gw2,k0,t17) + 0 gprod(gw2,k1,t17)
   + 0 gprod(gw2,k2,t17) + 0 gprod(gw2,k0,t18) + 0 gprod(gw2,k1,t18)
   + 0 gprod(gw2,k2,t18) + 0 gprod(gw2,k0,t19) + 0 gprod(gw2,k1,t19)
   + 0 gprod(gw2,k2,t19) + 0 gprod(gw2,k0,t20) + 0 gprod(gw2,k1,t20)
   + 0 gprod(gw2,k2,t20) + 0 gprod(gw2,k0,t21) + 0 gprod(gw2,k1,t21)
   + 0 gprod(gw2,k2,t21) + 0 gprod(gw2,k0,t22) + 0 gprod(gw2,k1,t22)
   + 0 gprod(gw2,k2,t22) + 0 gprod(gw2,k0,t23) + 0 gprod(gw2,k1,t23)
   + 0 gprod(gw2,k2,t23) + 0 gprod(gw2,k0,t24) + 0 gprod(gw2,k1,t24)
   + 0 gprod(gw2,k2,t24) + 4 gprod(gw3,k0,t1) + 4 gprod(gw3,k0,t2)
   + 4 gprod(gw3,k0,t3) + 4 gprod(gw3,k0,t4) + 0 gprod(gw3,k0,t5)
   + 0 gprod(gw3,k1,t5) + 0 gprod(gw3,k2,t5) + 0 gprod(gw3,k0,t6)
   + 0 gprod(gw3,k1,t6) + 0 gprod(gw3,k2,t6) + 0 gprod(gw3,k0,t7)
   + 0 gprod(gw3,k1,t7) + 0 gprod(gw3,k2,t7) + 0 gprod(gw3,k0,t8)
   + 0 gprod(gw3,k1,t8) + 0 gprod(gw3,k2,t8) + 0 gprod(gw3,k0,t9)
   + 0 gprod(gw3,k1,t9) + 0 gprod(gw3,k2,t9) + 0 gprod(gw3,k0,t10)
   + 0 gprod(gw3,k1,t10) + 0 gprod(gw3,k2,t10) + 0 gprod(gw3,k0,t11)
   + 0 gprod(gw3,k1,t11) + 0 gprod(gw3,k2,t11) + 0 gprod(gw3,k0,t12)
   + 0 gprod(gw3,k1,t12) + 0 gprod(gw3,k2,t12) + 0 gprod(gw3,k0,t13)
   + 0 gprod(gw3,k1,t13) + 0 gprod(gw3,k2,t13) + 0 gprod(gw3,k0,t14)
   + 0 gprod(gw3,k1,t14) + 0 gprod(gw3,k2,t14) + 0 gprod(gw3,k0,t15)
   + 0 gprod(gw3,k1,t15) + 0 gprod(gw3,k2,t15) + 0 gprod(gw3,k0,t16)
   + 0 gprod(gw3,k1,t16) + 0 gprod(gw3,k2,t16) + 0 gprod(gw3,k0,t17)
   + 0 gprod(gw3,k1,t17) + 0 gprod(gw3,k2,t17) + 0 gprod(gw3,k0,t18)
   + 0 gprod(gw3,k1,t18) + 0 gprod(gw3,k2,t18) + 0 gprod(gw3,k0,t19)
   + 0 gprod(gw3,k1,t19) + 0 gprod(gw3,k2,t19) + 0 gprod(gw3,k0,t20)
   + 0 gprod(gw3,k1,t20) + 0 gprod(gw3,k2,t20) + 0 gprod(gw3,k0,t21)
   + 0 gprod(gw3,k1,t21) + 0 gprod(gw3,k2,t21) + 0 gprod(gw3,k0,t22)
   + 0 gprod(gw3,k1,t22) + 0 gprod(gw3,k2,t22) + 0 gprod(gw3,k0,t23)
   + 0 gprod(gw3,k1,t23) + 0 gprod(gw3,k2,t23) + 0 gprod(gw3,k0,t24)
   + 0 gprod(gw3,k1,t24) + 0 gprod(gw3,k2,t24) + 2.1 gsin(gs1,t1,k0)
   + 2.1 gsout(gs1,t1,k0) + 2.1 gsin(gs1,t2,k0) + 2.1 gsout(gs1,t2,k0)
   + 2.1 gsin(gs1,t3,k0) + 2.1 gsout(gs1,t3,k0) + 2.1 gsin(gs1,t4,k0)
   + 2.1 gsout(gs1,t4,k0) + 0 gsin(gs1,t5,k0) + 0 gsout(gs1,t5,k0)
   + 0 gstore(gs1,t5,k0) + 0 gsin(gs1,t5,k1) + 0 gsout(gs1,t5,k1)
   + 0 gstore(gs1,t5,k1) + 0 gsin(gs1,t5,k2) + 0 gsout(gs1,t5,k2)
   + 0 gstore(gs1,t5,k2) + 0 gsin(gs1,t6,k0) + 0 gsout(gs1,t6,k0)
   + 0 gstore(gs1,t6,k0) + 0 gsin(gs1,t6,k1) + 0 gsout(gs1,t6,k1)
   + 0 gstore(gs1,t6,k1) + 0 gsin(gs1,t6,k2) + 0 gsout(gs1,t6,k2)
   + 0 gstore(gs1,t6,k2) + 0 gsin(gs1,t7,k0) + 0 gsout(gs1,t7,k0)
   + 0 gstore(gs1,t7,k0) + 0 gsin(gs1,t7,k1) + 0 gsout(gs1,t7,k1)
   + 0 gstore(gs1,t7,k1) + 0 gsin(gs1,t7,k2) + 0 gsout(gs1,t7,k2)
   + 0 gstore(gs1,t7,k2) + 0 gsin(gs1,t8,k0) + 0 gsout(gs1,t8,k0)
   + 0 gstore(gs1,t8,k0) + 0 gsin(gs1,t8,k1) + 0 gsout(gs1,t8,k1)
   + 0 gstore(gs1,t8,k1) + 0 gsin(gs1,t8,k2) + 0 gsout(gs1,t8,k2)
   + 0 gstore(gs1,t8,k2) + 0 gsin(gs1,t9,k0) + 0 gsout(gs1,t9,k0)
   + 0 gstore(gs1,t9,k0) + 0 gsin(gs1,t9,k1) + 0 gsout(gs1,t9,k1)
   + 0 gstore(gs1,t9,k1) + 0 gsin(gs1,t9,k2) + 0 gsout(gs1,t9,k2)
   + 0 gstore(gs1,t9,k2) + 0 gsin(gs1,t10,k0) + 0 gsout(gs1,t10,k0)
   + 0 gstore(gs1,t10,k0) + 0 gsin(gs1,t10,k1) + 0 gsout(gs1,t10,k1)
   + 0 gstore(gs1,t10,k1) + 0 gsin(gs1,t10,k2) + 0 gsout(gs1,t10,k2)
   + 0 gstore(gs1,t10,k2) + 0 gsin(gs1,t11,k0) + 0 gsout(gs1,t11,k0)
   + 0 gstore(gs1,t11,k0) + 0 gsin(gs1,t11,k1) + 0 gsout(gs1,t11,k1)
   + 0 gstore(gs1,t11,k1) + 0 gsin(gs1,t11,k2) + 0 gsout(gs1,t11,k2)
   + 0 gstore(gs1,t11,k2) + 0 gsin(gs1,t12,k0) + 0 gsout(gs1,t12,k0)
   + 0 gstore(gs1,t12,k0) + 0 gsin(gs1,t12,k1) + 0 gsout(gs1,t12,k1)
   + 0 gstore(gs1,t12,k1) + 0 gsin(gs1,t12,k2) + 0 gsout(gs1,t12,k2)
   + 0 gstore(gs1,t12,k2) + 0 gsin(gs1,t13,k0) + 0 gsout(gs1,t13,k0)
   + 0 gstore(gs1,t13,k0) + 0 gsin(gs1,t13,k1) + 0 gsout(gs1,t13,k1)
   + 0 gstore(gs1,t13,k1) + 0 gsin(gs1,t13,k2) + 0 gsout(gs1,t13,k2)
   + 0 gstore(gs1,t13,k2) + 0 gsin(gs1,t14,k0) + 0 gsout(gs1,t14,k0)
   + 0 gstore(gs1,t14,k0) + 0 gsin(gs1,t14,k1) + 0 gsout(gs1,t14,k1)
   + 0 gstore(gs1,t14,k1) + 0 gsin(gs1,t14,k2) + 0 gsout(gs1,t14,k2)
   + 0 gstore(gs1,t14,k2) + 0 gsin(gs1,t15,k0) + 0 gsout(gs1,t15,k0)
   + 0 gstore(gs1,t15,k0) + 0 gsin(gs1,t15,k1) + 0 gsout(gs1,t15,k1)
   + 0 gstore(gs1,t15,k1) + 0 gsin(gs1,t15,k2) + 0 gsout(gs1,t15,k2)
   + 0 gstore(gs1,t15,k2) + 0 gsin(gs1,t16,k0) + 0 gsout(gs1,t16,k0)
   + 0 gstore(gs1,t16,k0) + 0 gsin(gs1,t16,k1) + 0 gsout(gs1,t16,k1)
   + 0 gstore(gs1,t16,k1) + 0 gsin(gs1,t16,k2) + 0 gsout(gs1,t16,k2)
   + 0 gstore(gs1,t16,k2) + 0 gsin(gs1,t17,k0) + 0 gsout(gs1,t17,k0)
   + 0 gstore(gs1,t17,k0) + 0 gsin(gs1,t17,k1) + 0 gsout(gs1,t17,k1)
   + 0 gstore(gs1,t17,k1) + 0 gsin(gs1,t17,k2) + 0 gsout(gs1,t17,k2)
   + 0 gstore(gs1,t17,k2) + 0 gsin(gs1,t18,k0) + 0 gsout(gs1,t18,k0)
   + 0 gstore(gs1,t18,k0) + 0 gsin(gs1,t18,k1) + 0 gsout(gs1,t18,k1)
   + 0 gstore(gs1,t18,k1) + 0 gsin(gs1,t18,k2) + 0 gsout(gs1,t18,k2)
   + 0 gstore(gs1,t18,k2) + 0 gsin(gs1,t19,k0) + 0 gsout(gs1,t19,k0)
   + 0 gstore(gs1,t19,k0) + 0 gsin(gs1,t19,k1) + 0 gsout(gs1,t19,k1)
   + 0 gstore(gs1,t19,k1) + 0 gsin(gs1,t19,k2) + 0 gsout(gs1,t19,k2)
   + 0 gstore(gs1,t19,k2) + 0 gsin(gs1,t20,k0) + 0 gsout(gs1,t20,k0)
   + 0 gstore(gs1,t20,k0) + 0 gsin(gs1,t20,k1) + 0 gsout(gs1,t20,k1)
   + 0 gstore(gs1,t20,k1) + 0 gsin(gs1,t20,k2) + 0 gsout(gs1,t20,k2)
   + 0 gstore(gs1,t20,k2) + 0 gsin(gs1,t21,k0) + 0 gsout(gs1,t21,k0)
   + 0 gstore(gs1,t21,k0) + 0 gsin(gs1,t21,k1) + 0 gsout(gs1,t21,k1)
   + 0 gstore(gs1,t21,k1) + 0 gsin(gs1,t21,k2) + 0 gsout(gs1,t21,k2)
   + 0 gstore(gs1,t21,k2) + 0 gsin(gs1,t22,k0) + 0 gsout(gs1,t22,k0)
   + 0 gstore(gs1,t22,k0) + 0 gsin(gs1,t22,k1) + 0 gsout(gs1,t22,k1)
   + 0 gstore(gs1,t22,k1) + 0 gsin(gs1,t22,k2) + 0 gsout(gs1,t22,k2)
   + 0 gstore(gs1,t22,k2) + 0 gsin(gs1,t23,k0) + 0 gsout(gs1,t23,k0)
   + 0 gstore(gs1,t23,k0) + 0 gsin(gs1,t23,k1) + 0 gsout(gs1,t23,k1)
   + 0 gstore(gs1,t23,k1) + 0 gsin(gs1,t23,k2) + 0 gsout(gs1,t23,k2)
   + 0 gstore(gs1,t23,k2) + 0 gsin(gs1,t24,k0) + 0 gsout(gs1,t24,k0)
   + 0 gstore(gs1,t24,k0) + 0 gsin(gs1,t24,k1) + 0 gsout(gs1,t24,k1)
   + 0 gstore(gs1,t24,k1) + 0 gsin(gs1,t24,k2) + 0 gsout(gs1,t24,k2)
   + 0 gstore(gs1,t24,k2)
Subject To
 gshed_da_max(ng101,k0,t1): gshed_da(ng101,k0,t1) <= 0
 gshed_da_max(ng101,k1,t1): gshed_da(ng101,k1,t1) <= 0
 gshed_da_max(ng101,k2,t1): gshed_da(ng101,k2,t1) <= 0
 gshed_da_max(ng101,k0,t2): gshed_da(ng101,k0,t2) <= 0
 gshed_da_max(ng101,k1,t2): gshed_da(ng101,k1,t2) <= 0
 gshed_da_max(ng101,k2,t2): gshed_da(ng101,k2,t2) <= 0
 gshed_da_max(ng101,k0,t3): gshed_da(ng101,k0,t3) <= 0
 gshed_da_max(ng101,k1,t3): gshed_da(ng101,k1,t3) <= 0
 gshed_da_max(ng101,k2,t3): gshed_da(ng101,k2,t3) <= 0
 gshed_da_max(ng101,k0,t4): gshed_da(ng101,k0,t4) <= 0
 gshed_da_max(ng101,k1,t4): gshed_da(ng101,k1,t4) <= 0
 gshed_da_max(ng101,k2,t4): gshed_da(ng101,k2,t4) <= 0
 gshed_da_max(ng102,k0,t1): gshed_da(ng102,k0,t1) <= 0
 gshed_da_max(ng102,k1,t1): gshed_da(ng102,k1,t1) <= 0
 gshed_da_max(ng102,k2,t1): gshed_da(ng102,k2,t1) <= 0
 gshed_da_max(ng102,k0,t2): gshed_da(ng102,k0,t2) <= 0
 gshed_da_max(ng102,k1,t2): gshed_da(ng102,k1,t2) <= 0
 gshed_da_max(ng102,k2,t2): gshed_da(ng102,k2,t2) <= 0
 gshed_da_max(ng102,k0,t3): gshed_da(ng102,k0,t3) <= 0
 gshed_da_max(ng102,k1,t3): gshed_da(ng102,k1,t3) <= 0
 gshed_da_max(ng102,k2,t3): gshed_da(ng102,k2,t3) <= 0
 gshed_da_max(ng102,k0,t4): gshed_da(ng102,k0,t4) <= 0
 gshed_da_max(ng102,k1,t4): gshed_da(ng102,k1,t4) <= 0
 gshed_da_max(ng102,k2,t4): gshed_da(ng102,k2,t4) <= 0
 gas_balance_da(ng101,k0,t1): - qin_sr(('ng101','ng102'),k0,t1)
   + gprod(gw1,k0,t1) + gprod(gw2,k0,t1) + gprod(gw3,k0,t1) = 0
 gas_balance_da(ng101,k1,t1): - qin_sr(('ng101','ng102'),k1,t1)
   + gprod(gw1,k1,t1) + gprod(gw2,k1,t1) + gprod(gw3,k1,t1) = 0
 gas_balance_da(ng101,k2,t1): - qin_sr(('ng101','ng102'),k2,t1)
   + gprod(gw1,k2,t1) + gprod(gw2,k2,t1) + gprod(gw3,k2,t1) = 0
 gas_balance_da(ng102,k0,t1): qout_sr(('ng101','ng102'),k0,t1)
   - gsin(gs1,t1,k0) + gsout(gs1,t1,k0) = 400
 gas_balance_da(ng102,k1,t1): qout_sr(('ng101','ng102'),k1,t1)
   - gsin(gs1,t1,k1) + gsout(gs1,t1,k1) = 400
 gas_balance_da(ng102,k2,t1): qout_sr(('ng101','ng102'),k2,t1)
   - gsin(gs1,t1,k2) + gsout(gs1,t1,k2) = 320
 gas_balance_da(ng101,k0,t2): - qin_sr(('ng101','ng102'),k0,t2)
   + gprod(gw1,k0,t2) + gprod(gw2,k0,t2) + gprod(gw3,k0,t2) = 0
 gas_balance_da(ng101,k1,t2): - qin_sr(('ng101','ng102'),k1,t2)
   + gprod(gw1,k1,t2) + gprod(gw2,k1,t2) + gprod(gw3,k1,t2) = 0
 gas_balance_da(ng101,k2,t2): - qin_sr(('ng101','ng102'),k2,t2)
   + gprod(gw1,k2,t2) + gprod(gw2,k2,t2) + gprod(gw3,k2,t2) = 0
 gas_balance_da(ng102,k0,t2): qout_sr(('ng101','ng102'),k0,t2)
   - gsin(gs1,t2,k0) + gsout(gs1,t2,k0) = 410.35276184
 gas_balance_da(ng102,k1,t2): qout_sr(('ng101','ng102'),k1,t2)
   - gsin(gs1,t2,k1) + gsout(gs1,t2,k1) = 410.35276184
 gas_balance_da(ng102,k2,t2): qout_sr(('ng101','ng102'),k2,t2)
   - gsin(gs1,t2,k2) + gsout(gs1,t2,k2) = 330.35276184
 gas_balance_da(ng101,k0,t3): - qin_sr(('ng101','ng102'),k0,t3)
   + gprod(gw1,k0,t3) + gprod(gw2,k0,t3) + gprod(gw3,k0,t3) = 0
 gas_balance_da(ng101,k1,t3): - qin_sr(('ng101','ng102'),k1,t3)
   + gprod(gw1,k1,t3) + gprod(gw2,k1,t3) + gprod(gw3,k1,t3) = 0
 gas_balance_da(ng101,k2,t3): - qin_sr(('ng101','ng102'),k2,t3)
   + gprod(gw1,k2,t3) + gprod(gw2,k2,t3) + gprod(gw3,k2,t3) = 0
 gas_balance_da(ng102,k0,t3): qout_sr(('ng101','ng102'),k0,t3)
   - gsin(gs1,t3,k0) + gsout(gs1,t3,k0) = 420
 gas_balance_da(ng102,k1,t3): qout_sr(('ng101','ng102'),k1,t3)
   - gsin(gs1,t3,k1) + gsout(gs1,t3,k1) = 420
 gas_balance_da(ng102,k2,t3): qout_sr(('ng101','ng102'),k2,t3)
   - gsin(gs1,t3,k2) + gsout(gs1,t3,k2) = 340
 gas_balance_da(ng101,k0,t4): - qin_sr(('ng101','ng102'),k0,t4)
   + gprod(gw1,k0,t4) + gprod(gw2,k0,t4) + gprod(gw3,k0,t4) = 0
 gas_balance_da(ng101,k1,t4): - qin_sr(('ng101','ng102'),k1,t4)
   + gprod(gw1,k1,t4) + gprod(gw2,k1,t4) + gprod(gw3,k1,t4) = 0
 gas_balance_da(ng101,k2,t4): - qin_sr(('ng101','ng102'),k2,t4)
   + gprod(gw1,k2,t4) + gprod(gw2,k2,t4) + gprod(gw3,k2,t4) = 0
 gas_balance_da(ng102,k0,t4): qout_sr(('ng101','ng102'),k0,t4)
   - gsin(gs1,t4,k0) + gsout(gs1,t4,k0) = 428.28427128
 gas_balance_da(ng102,k1,t4): qout_sr(('ng101','ng102'),k1,t4)
   - gsin(gs1,t4,k1) + gsout(gs1,t4,k1) = 428.28427128
 gas_balance_da(ng102,k2,t4): qout_sr(('ng101','ng102'),k2,t4)
   - gsin(gs1,t4,k2) + gsout(gs1,t4,k2) = 348.28427128
 gprod_max(gw1,k0,t1): gprod(gw1,k0,t1) <= 100
 gprod_max(gw1,k0,t2): gprod(gw1,k0,t2) <= 100
 gprod_max(gw1,k0,t3): gprod(gw1,k0,t3) <= 100
 gprod_max(gw1,k0,t4): gprod(gw1,k0,t4) <= 100
 gprod_max(gw1,k1,t1): gprod(gw1,k1,t1) <= 100
 gprod_max(gw1,k1,t2): gprod(gw1,k1,t2) <= 100
 gprod_max(gw1,k1,t3): gprod(gw1,k1,t3) <= 100
 gprod_max(gw1,k1,t4): gprod(gw1,k1,t4) <= 100
 gprod_max(gw1,k2,t1): gprod(gw1,k2,t1) <= 100
 gprod_max(gw1,k2,t2): gprod(gw1,k2,t2) <= 100
 gprod_max(gw1,k2,t3): gprod(gw1,k2,t3) <= 100
 gprod_max(gw1,k2,t4): gprod(gw1,k2,t4) <= 100
 gprod_max(gw2,k0,t1): gprod(gw2,k0,t1) <= 250
 gprod_max(gw2,k0,t2): gprod(gw2,k0,t2) <= 250
 gprod_max(gw2,k0,t3): gprod(gw2,k0,t3) <= 250
 gprod_max(gw2,k0,t4): gprod(gw2,k0,t4) <= 250
 gprod_max(gw2,k1,t1): gprod(gw2,k1,t1) <= 250
 gprod_max(gw2,k1,t2): gprod(gw2,k1,t2) <= 250
 gprod_max(gw2,k1,t3): gprod(gw2,k1,t3) <= 250
 gprod_max(gw2,k1,t4): gprod(gw2,k1,t4) <= 250
 gprod_max(gw2,k2,t1): gprod(gw2,k2,t1) <= 250
 gprod_max(gw2,k2,t2): gprod(gw2,k2,t2) <= 250
 gprod_max(gw2,k2,t3): gprod(gw2,k2,t3) <= 250
 gprod_max(gw2,k2,t4): gprod(gw2,k2,t4) <= 250
 gprod_max(gw3,k0,t1): gprod(gw3,k0,t1) <= 500
 gprod_max(gw3,k0,t2): gprod(gw3,k0,t2) <= 500
 gprod_max(gw3,k0,t3): gprod(gw3,k0,t3) <= 500
 gprod_max(gw3,k0,t4): gprod(gw3,k0,t4) <= 500
 gprod_max(gw3,k1,t1): gprod(gw3,k1,t1) <= 500
 gprod_max(gw3,k1,t2): gprod(gw3,k1,t2) <= 500
 gprod_max(gw3,k1,t3): gprod(gw3,k1,t3) <= 500
 gprod_max(gw3,k1,t4): gprod(gw3,k1,t4) <= 500
 gprod_max(gw3,k2,t1): gprod(gw3,k2,t1) <= 500
 gprod_max(gw3,k2,t2): gprod(gw3,k2,t2) <= 500
 gprod_max(gw3,k2,t3): gprod(gw3,k2,t3) <= 500
 gprod_max(gw3,k2,t4): gprod(gw3,k2,t4) <= 500
 gflow_sr_io(('ng101','ng102'),k0,t1): gflow_sr(('ng101','ng102'),k0,t1)
   - 0.5 qin_sr(('ng101','ng102'),k0,t1)
   - 0.5 qout_sr(('ng101','ng102'),k0,t1) = 0
 gflow_sr_limit(('ng101','ng102'),k0,t1): gflow_sr(('ng101','ng102'),k0,t1)
   <= 4000
 Flow_Bal(('ng101','ng102'),k0,t1): qin_sr(('ng101','ng102'),k0,t1)
   - qout_sr(('ng101','ng102'),k0,t1) = 0
 gflow_sr_io(('ng101','ng102'),k1,t1): gflow_sr(('ng101','ng102'),k1,t1)
   - 0.5 qin_sr(('ng101','ng102'),k1,t1)
   - 0.5 qout_sr(('ng101','ng102'),k1,t1) = 0
 gflow_sr_limit(('ng101','ng102'),k1,t1): gflow_sr(('ng101','ng102'),k1,t1)
   <= 4000
 Flow_Bal(('ng101','ng102'),k1,t1): qin_sr(('ng101','ng102'),k1,t1)
   - qout_sr(('ng101','ng102'),k1,t1) = 0
 gflow_sr_io(('ng101','ng102'),k2,t1): gflow_sr(('ng101','ng102'),k2,t1)
   - 0.5 qin_sr(('ng101','ng102'),k2,t1)
   - 0.5 qout_sr(('ng101','ng102'),k2,t1) = 0
 gflow_sr_limit(('ng101','ng102'),k2,t1): gflow_sr(('ng101','ng102'),k2,t1)
   <= 4000
 Flow_Bal(('ng101','ng102'),k2,t1): qin_sr(('ng101','ng102'),k2,t1)
   - qout_sr(('ng101','ng102'),k2,t1) = 0
 gflow_sr_io(('ng101','ng102'),k0,t2): gflow_sr(('ng101','ng102'),k0,t2)
   - 0.5 qin_sr(('ng101','ng102'),k0,t2)
   - 0.5 qout_sr(('ng101','ng102'),k0,t2) = 0
 gflow_sr_limit(('ng101','ng102'),k0,t2): gflow_sr(('ng101','ng102'),k0,t2)
   <= 4000
 Flow_Bal(('ng101','ng102'),k0,t2): qin_sr(('ng101','ng102'),k0,t2)
   - qout_sr(('ng101','ng102'),k0,t2) = 0
 gflow_sr_io(('ng101','ng102'),k1,t2): gflow_sr(('ng101','ng102'),k1,t2)
   - 0.5 qin_sr(('ng101','ng102'),k1,t2)
   - 0.5 qout_sr(('ng101','ng102'),k1,t2) = 0
 gflow_sr_limit(('ng101','ng102'),k1,t2): gflow_sr(('ng101','ng102'),k1,t2)
   <= 4000
 Flow_Bal(('ng101','ng102'),k1,t2): qin_sr(('ng101','ng102'),k1,t2)
   - qout_sr(('ng101','ng102'),k1,t2) = 0
 gflow_sr_io(('ng101','ng102'),k2,t2): gflow_sr(('ng101','ng102'),k2,t2)
   - 0.5 qin_sr(('ng101','ng102'),k2,t2)
   - 0.5 qout_sr(('ng101','ng102'),k2,t2) = 0
 gflow_sr_limit(('ng101','ng102'),k2,t2): gflow_sr(('ng101','ng102'),k2,t2)
   <= 4000
 Flow_Bal(('ng101','ng102'),k2,t2): qin_sr(('ng101','ng102'),k2,t2)
   - qout_sr(('ng101','ng102'),k2,t2) = 0
 gflow_sr_io(('ng101','ng102'),k0,t3): gflow_sr(('ng101','ng102'),k0,t3)
   - 0.5 qin_sr(('ng101','ng102'),k0,t3)
   - 0.5 qout_sr(('ng101','ng102'),k0,t3) = 0
 gflow_sr_limit(('ng101','ng102'),k0,t3): gflow_sr(('ng101','ng102'),k0,t3)
   <= 4000
 Flow_Bal(('ng101','ng102'),k0,t3): qin_sr(('ng101','ng102'),k0,t3)
   - qout_sr(('ng101','ng102'),k0,t3) = 0
 gflow_sr_io(('ng101','ng102'),k1,t3): gflow_sr(('ng101','ng102'),k1,t3)
   - 0.5 qin_sr(('ng101','ng102'),k1,t3)
   - 0.5 qout_sr(('ng101','ng102'),k1,t3) = 0
 gflow_sr_limit(('ng101','ng102'),k1,t3): gflow_sr(('ng101','ng102'),k1,t3)
   <= 4000
 Flow_Bal(('ng101','ng102'),k1,t3): qin_sr(('ng101','ng102'),k1,t3)
   - qout_sr(('ng101','ng102'),k1,t3) = 0
 gflow_sr_io(('ng101','ng102'),k2,t3): gflow_sr(('ng101','ng102'),k2,t3)
   - 0.5 qin_sr(('ng101','ng102'),k2,t3)
   - 0.5 qout_sr(('ng101','ng102'),k2,t3) = 0
 gflow_sr_limit(('ng101','ng102'),k2,t3): gflow_sr(('ng101','ng102'),k2,t3)
   <= 4000
 Flow_Bal(('ng101','ng102'),k2,t3): qin_sr(('ng101','ng102'),k2,t3)
   - qout_sr(('ng101','ng102'),k2,t3) = 0
 gflow_sr_io(('ng101','ng102'),k0,t4): gflow_sr(('ng101','ng102'),k0,t4)
   - 0.5 qin_sr(('ng101','ng102'),k0,t4)
   - 0.5 qout_sr(('ng101','ng102'),k0,t4) = 0
 gflow_sr_limit(('ng101','ng102'),k0,t4): gflow_sr(('ng101','ng102'),k0,t4)
   <= 4000
 Flow_Bal(('ng101','ng102'),k0,t4): qin_sr(('ng101','ng102'),k0,t4)
   - qout_sr(('ng101','ng102'),k0,t4) = 0
 gflow_sr_io(('ng101','ng102'),k1,t4): gflow_sr(('ng101','ng102'),k1,t4)
   - 0.5 qin_sr(('ng101','ng102'),k1,t4)
   - 0.5 qout_sr(('ng101','ng102'),k1,t4) = 0
 gflow_sr_limit(('ng101','ng102'),k1,t4): gflow_sr(('ng101','ng102'),k1,t4)
   <= 4000
 Flow_Bal(('ng101','ng102'),k1,t4): qin_sr(('ng101','ng102'),k1,t4)
   - qout_sr(('ng101','ng102'),k1,t4) = 0
 gflow_sr_io(('ng101','ng102'),k2,t4): gflow_sr(('ng101','ng102'),k2,t4)
   - 0.5 qin_sr(('ng101','ng102'),k2,t4)
   - 0.5 qout_sr(('ng101','ng102'),k2,t4) = 0
 gflow_sr_limit(('ng101','ng102'),k2,t4): gflow_sr(('ng101','ng102'),k2,t4)
   <= 4000
 Flow_Bal(('ng101','ng102'),k2,t4): qin_sr(('ng101','ng102'),k2,t4)
   - qout_sr(('ng101','ng102'),k2,t4) = 0
 gsinMax(gs1,t1,k0): gsin(gs1,t1,k0) <= 0
 gsoutMax(gs1,t1,k0): gsout(gs1,t1,k0) <= 0
 gstore_max(gs1,t1,k0): gstore(gs1,t1,k0) <= 0
 gstore_min(gs1,t1,k0): gstore(gs1,t1,k0) >= 0
 gsinMax(gs1,t2,k0): gsin(gs1,t2,k0) <= 0
 gsoutMax(gs1,t2,k0): gsout(gs1,t2,k0) <= 0
 gstore_max(gs1,t2,k0): gstore(gs1,t2,k0) <= 0
 gstore_min(gs1,t2,k0): gstore(gs1,t2,k0) >= 0
 gsinMax(gs1,t3,k0): gsin(gs1,t3,k0) <= 0
 gsoutMax(gs1,t3,k0): gsout(gs1,t3,k0) <= 0
 gstore_max(gs1,t3,k0): gstore(gs1,t3,k0) <= 0
 gstore_min(gs1,t3,k0): gstore(gs1,t3,k0) >= 0
 gsinMax(gs1,t4,k0): gsin(gs1,t4,k0) <= 0
 gsoutMax(gs1,t4,k0): gsout(gs1,t4,k0) <= 0
 gstore_max(gs1,t4,k0): gstore(gs1,t4,k0) <= 0
 gstore_min(gs1,t4,k0): gstore(gs1,t4,k0) >= 0
 gstor_def(gs1,k0,t2): - gstore(gs1,t1,k0) - gsin(gs1,t2,k0)
   + gsout(gs1,t2,k0) + gstore(gs1,t2,k0) = 0
 gstor_def(gs1,k0,t3): - gstore(gs1,t2,k0) - gsin(gs1,t3,k0)
   + gsout(gs1,t3,k0) + gstore(gs1,t3,k0) = 0
 gstor_def(gs1,k0,t4): - gstore(gs1,t3,k0) - gsin(gs1,t4,k0)
   + gsout(gs1,t4,k0) + gstore(gs1,t4,k0) = 0
 gstor_def(gs1,k0,t1): - gsin(gs1,t1,k0) + gsout(gs1,t1,k0)
   + gstore(gs1,t1,k0) = 0
 gsinMax(gs1,t1,k1): gsin(gs1,t1,k1) <= 0
 gsoutMax(gs1,t1,k1): gsout(gs1,t1,k1) <= 0
 gstore_max(gs1,t1,k1): gstore(gs1,t1,k1) <= 0
 gstore_min(gs1,t1,k1): gstore(gs1,t1,k1) >= 0
 gsinMax(gs1,t2,k1): gsin(gs1,t2,k1) <= 0
 gsoutMax(gs1,t2,k1): gsout(gs1,t2,k1) <= 0
 gstore_max(gs1,t2,k1): gstore(gs1,t2,k1) <= 0
 gstore_min(gs1,t2,k1): gstore(gs1,t2,k1) >= 0
 gsinMax(gs1,t3,k1): gsin(gs1,t3,k1) <= 0
 gsoutMax(gs1,t3,k1): gsout(gs1,t3,k1) <= 0
 gstore_max(gs1,t3,k1): gstore(gs1,t3,k1) <= 0
 gstore_min(gs1,t3,k1): gstore(gs1,t3,k1) >= 0
 gsinMax(gs1,t4,k1): gsin(gs1,t4,k1) <= 0
 gsoutMax(gs1,t4,k1): gsout(gs1,t4,k1) <= 0
 gstore_max(gs1,t4,k1): gstore(gs1,t4,k1) <= 0
 gstore_min(gs1,t4,k1): gstore(gs1,t4,k1) >= 0
 gstor_def(gs1,k1,t2): - gstore(gs1,t1,k1) - gsin(gs1,t2,k1)
   + gsout(gs1,t2,k1) + gstore(gs1,t2,k1) = 0
 gstor_def(gs1,k1,t3): - gstore(gs1,t2,k1) - gsin(gs1,t3,k1)
   + gsout(gs1,t3,k1) + gstore(gs1,t3,k1) = 0
 gstor_def(gs1,k1,t4): - gstore(gs1,t3,k1) - gsin(gs1,t4,k1)
   + gsout(gs1,t4,k1) + gstore(gs1,t4,k1) = 0
 gstor_def(gs1,k1,t1): - gsin(gs1,t1,k1) + gsout(gs1,t1,k1)
   + gstore(gs1,t1,k1) = 0
 gsinMax(gs1,t1,k2): gsin(gs1,t1,k2) <= 0
 gsoutMax(gs1,t1,k2): gsout(gs1,t1,k2) <= 0
 gstore_max(gs1,t1,k2): gstore(gs1,t1,k2) <= 0
 gstore_min(gs1,t1,k2): gstore(gs1,t1,k2) >= 0
 gsinMax(gs1,t2,k2): gsin(gs1,t2,k2) <= 0
 gsoutMax(gs1,t2,k2): gsout(gs1,t2,k2) <= 0
 gstore_max(gs1,t2,k2): gstore(gs1,t2,k2) <= 0
 gstore_min(gs1,t2,k2): gstore(gs1,t2,k2) >= 0
 gsinMax(gs1,t3,k2): gsin(gs1,t3,k2) <= 0
 gsoutMax(gs1,t3,k2): gsout(gs1,t3,k2) <= 0
 gstore_max(gs1,t3,k2): gstore(gs1,t3,k2) <= 0
 gstore_min(gs1,t3,k2): gstore(gs1,t3,k2) >= 0
 gsinMax(gs1,t4,k2): gsin(gs1,t4,k2) <= 0
 gsoutMax(gs1,t4,k2): gsout(gs1,t4,k2) <= 0
 gstore_max(gs1,t4,k2): gstore(gs1,t4,k2) <= 0
 gstore_min(gs1,t4,k2): gstore(gs1,t4,k2) >= 0
 gstor_def(gs1,k2,t2): - gstore(gs1,t1,k2) - gsin(gs1,t2,k2)
   + gsout(gs1,t2,k2) + gstore(gs1,t2,k2) = 0
 gstor_def(gs1,k2,t3): - gstore(gs1,t2,k2) - gsin(gs1,t3,k2)
   + gsout(gs1,t3,k2) + gstore(gs1,t3,k2) = 0
 gstor_def(gs1,k2,t4): - gstore(gs1,t3,k2) - gsin(gs1,t4,k2)
   + gsout(gs1,t4,k2) + gstore(gs1,t4,k2) = 0
 gstor_def(gs1,k2,t1): - gsin(gs1,t1,k2) + gsout(gs1,t1,k2)
   + gstore(gs1,t1,k2) = 0
 gs_end(gs1,k0): gstore(gs1,t4,k0) >= 0
Bounds
End
